
Gurobi 9.0.3 (win64) logging started Sat Feb  5 17:52:15 2022

Changed value of parameter LogFile to logs\CRVRP_5-2-7-100_1_7.LOG
   Prev: logs\CRVRP_5-2-7-100_1_6.LOG  Default: 
Changed value of parameter Seed to 1937956680
   Prev: 589970579  Min: 0  Max: 2000000000  Default: 0
Parameter Threads unchanged
   Value: 2  Min: 0  Max: 1024  Default: 0
Parameter TimeLimit unchanged
   Value: 60.0  Min: 0.0  Max: inf  Default: inf
Parameter Symmetry unchanged
   Value: 2  Min: -1  Max: 2  Default: -1
Parameter Cuts unchanged
   Value: 2  Min: -1  Max: 3  Default: -1
Parameter PreDepRow unchanged
   Value: 1  Min: -1  Max: 1  Default: -1
Parameter ScaleFlag unchanged
   Value: 1  Min: -1  Max: 3  Default: -1
Parameter NormAdjust unchanged
   Value: 0  Min: -1  Max: 3  Default: -1
Gurobi Optimizer version 9.0.3 build v9.0.3rc0 (win64)
Optimize a model with 1001 rows, 810 columns and 4006 nonzeros
Model fingerprint: 0x60801deb
Variable types: 32 continuous, 778 integer (522 binary)
Coefficient statistics:
  Matrix range     [1e+00, 1e+06]
  Objective range  [1e+00, 1e+00]
  Bounds range     [1e+00, 1e+04]
  RHS range        [1e+00, 1e+06]
Presolve removed 618 rows and 515 columns
Presolve time: 0.02s
Presolved: 383 rows, 295 columns, 2048 nonzeros
Variable types: 15 continuous, 280 integer (230 binary)

Root relaxation: objective 3.141848e+02, 203 iterations, 0.00 seconds

    Nodes    |    Current Node    |     Objective Bounds      |     Work
 Expl Unexpl |  Obj  Depth IntInf | Incumbent    BestBd   Gap | It/Node Time

     0     0  314.18479    0   33          -  314.18479      -     -    0s
H    0     0                    1197.9012190  314.18479  73.8%     -    0s
     0     0  340.86141    0   42 1197.90122  340.86141  71.5%     -    0s
H    0     0                    1069.8031839  340.86141  68.1%     -    0s
H    0     0                     694.0774327  340.86141  50.9%     -    0s
     0     0  354.34157    0   47  694.07743  354.34157  48.9%     -    0s
     0     0  354.34157    0   57  694.07743  354.34157  48.9%     -    0s
     0     0  364.72134    0   49  694.07743  364.72134  47.5%     -    0s
H    0     0                     668.3745781  364.72134  45.4%     -    0s
     0     0  364.72612    0   49  668.37458  364.72612  45.4%     -    0s
     0     0  370.85221    0   50  668.37458  370.85221  44.5%     -    0s
H    0     0                     607.0674168  370.85221  38.9%     -    0s
     0     0  372.37723    0   53  607.06742  372.37723  38.7%     -    0s
H    0     0                     607.0674168  372.37723  38.7%     -    0s
     0     0  372.37723    0   53  607.06742  372.37723  38.7%     -    0s
     0     0  372.37723    0   51  607.06742  372.37723  38.7%     -    0s
     0     0  372.37723    0   48  607.06742  372.37723  38.7%     -    0s
H    0     0                     553.0691004  372.37723  32.7%     -    0s
H    0     0                     517.0923252  372.37723  28.0%     -    0s
     0     2  372.40196    0   48  517.09233  372.40196  28.0%     -    0s
H    3     6                     479.0192009  372.62536  22.2%  44.3    0s
*   27    18              10     469.2508989  377.28545  19.6%  17.7    0s
*  120    34              21     459.5151021  400.98741  12.7%  17.6    0s
*  160    42              11     452.4321143  404.67387  10.6%  15.2    0s

Cutting planes:
  Gomory: 10
  Cover: 2
  Implied bound: 22
  Projected implied bound: 1
  Clique: 2
  MIR: 22
  StrongCG: 2
  Flow cover: 44
  Inf proof: 1
  Zero half: 2
  RLT: 38
  Relax-and-lift: 11

Explored 374 nodes (4883 simplex iterations) in 0.69 seconds
Thread count was 2 (of 8 available processors)

Solution count 10: 452.432 459.515 469.251 ... 1069.8

Optimal solution found (tolerance 1.00e-04)
Best objective 4.524321143066e+02, best bound 4.524321143066e+02, gap 0.0000%
Discarded solution information
